154
314
155
455
118
263
103
75
160
248
95
141
133
96
141
295
113
136
395
192
86
207
192
176
107
213
160
88
197
191
153
279
377
118
149
185
235
221
425
184
170
185
108
207
338
184
191
107
176
122
119
225
195
202
154
87
204
167
123
165
133
116
288
94
107
117
238
135
304
80
60
142
113
180
77
208
103
110
115
106
187
96
146
148
124
139
256
81
131
91
71
325
150
122
366
136
135
128
140
126
